1111100 AB
434 446 473 492 511 522 567 604 641 677 700 714 750 773 798 822 846 871 895 921 946 971 997 1023 1047 1073 1099 1123 1125 1149 1173 1208 1244 1275
1111100 AB red
549 584 603 640 823 919 971 1022
1111100 BA
395 404 428 447 466 477 504 523 542 561 598 635 672 708 731 756 781 804 829 853 877 903 928 954 979 1004 1030 1056 1080 1106 1131 1167 1203 1238
0000010 AB
427 501 572 644 715 787 823 859 895 971 1042 1119 1156 1193 1230
0000010 AB red
573 716 933 1045
0000010 BA
390 460 531 532 603 675 746 818 854 892 930 1004 1078 1152 1189
0000001 AB
427 501 572 644 715 787 823 859 895 971 1042 1119 1156 1193 1230
0000001 AB red
573 716 933 1045
0000001 BA
390 460 531 532 603 675 746 818 854 892 930 1004 1078 1152 1189
